set VV := 0 1 2 3 4 5 6 7 8 9 10 11 12 13 14 15 16 17 18 19 20 21 ;
set VS := 0 1 2 3 4 5 6 7 8 9 10 11 12 13 14 15 16 17 18 19 20 21 22 23 24 25 26 27 28 29 30 31 32 33 34 35 36 37 38 39 40 41 42 43 44 45 46 47 48 ;
param cv := 
0 25
1 24
2 13
3 14
4 21
5 23
6 12
7 16
8 14
9 12
10 16
11 25
12 17
13 10
14 17
15 22
16 19
17 21
18 15
19 11
20 13
21 25
;
param cs := 
0 32
1 28
2 29
3 37
4 28
5 36
6 32
7 29
8 40
9 34
10 31
11 31
12 34
13 30
14 38
15 36
16 36
17 40
18 35
19 20
20 23
21 24
22 35
23 23
24 26
25 32
26 22
27 27
28 20
29 33
30 34
31 33
32 20
33 38
34 25
35 32
36 28
37 31
38 21
39 39
40 29
41 20
42 31
43 20
44 27
45 26
46 30
47 28
48 32
;
param bv:	 0 1 2 3 4 5 6 7 8 9 10 11 12 13 14 15 16 17 18 19 20 21 := 
		0 0 0 0 0 0 0 0 0 0 0 18 0 0 0 0 24 0 0 0 0 0 0 
		1 0 0 0 0 0 0 17 0 22 0 0 0 0 0 0 18 0 0 0 0 21 0 
		2 0 0 0 0 0 21 0 0 0 0 0 0 0 0 0 0 0 0 0 0 0 0 
		3 0 0 0 0 0 0 0 0 0 0 0 0 0 0 0 0 0 0 0 0 0 24 
		4 0 0 0 0 0 0 12 0 0 14 0 0 0 0 0 0 0 0 0 13 0 0 
		5 0 0 0 0 0 0 0 0 0 0 0 0 0 0 0 10 0 23 0 0 0 0 
		6 0 0 0 0 0 0 0 0 0 0 0 0 0 0 0 0 0 0 17 0 0 0 
		7 0 0 0 0 0 0 0 0 0 20 0 0 0 0 0 0 0 0 0 0 0 0 
		8 0 0 0 0 0 0 0 0 0 0 0 0 0 0 0 0 0 0 0 0 0 0 
		9 0 0 0 0 0 0 0 0 0 0 0 21 0 0 0 0 0 0 0 0 0 0 
		10 0 0 0 0 0 0 0 0 0 0 0 0 20 18 0 0 25 0 0 0 0 0 
		11 0 0 0 0 0 0 0 0 0 0 0 0 0 0 13 0 0 17 0 0 0 0 
		12 0 0 0 0 0 0 0 0 0 0 0 0 0 0 0 25 0 0 0 0 11 18 
		13 0 0 0 0 0 0 0 0 0 0 0 0 0 0 0 0 0 0 0 0 0 0 
		14 0 0 0 0 0 0 0 0 0 0 0 0 0 0 0 0 16 0 0 0 0 0 
		15 0 0 0 0 0 0 0 0 0 0 0 0 0 0 0 0 20 0 0 0 0 12 
		16 0 0 0 0 0 0 0 0 0 0 0 0 0 0 0 0 0 0 0 0 0 0 
		17 0 0 0 0 0 0 0 0 0 0 0 0 0 0 0 0 0 0 0 0 0 0 
		18 0 0 0 0 0 0 0 0 0 0 0 0 0 0 0 0 0 0 0 0 0 0 
		19 0 0 0 0 0 0 0 0 0 0 0 0 0 0 0 0 0 0 0 0 0 13 
		20 0 0 0 0 0 0 0 0 0 0 0 0 0 0 0 0 0 0 0 0 0 0 
		21 0 0 0 0 0 0 0 0 0 0 0 0 0 0 0 0 0 0 0 0 0 0 
;
param bs:	 0 1 2 3 4 5 6 7 8 9 10 11 12 13 14 15 16 17 18 19 20 21 22 23 24 25 26 27 28 29 30 31 32 33 34 35 36 37 38 39 40 41 42 43 44 45 46 47 48 := 
		0 0 0 0 20 0 0 0 0 0 0 0 0 0 0 38 0 0 0 0 0 0 0 26 0 0 0 0 0 23 0 0 0 0 0 0 0 0 0 0 0 0 0 0 0 0 0 0 0 35 
		1 0 0 0 0 0 0 31 0 0 0 0 0 0 26 0 0 0 0 0 0 0 27 0 0 27 0 0 0 0 0 0 0 0 0 32 0 0 0 0 0 0 0 0 0 23 0 0 0 0 
		2 0 0 0 0 0 0 25 37 0 0 0 0 0 0 0 0 0 0 0 0 0 40 0 31 0 0 0 0 0 0 0 0 23 0 0 0 31 0 0 0 0 0 0 0 29 0 0 25 0 
		3 20 0 0 0 0 0 0 0 0 0 0 0 0 20 0 0 20 0 0 0 0 0 0 0 0 0 0 0 0 0 0 0 0 32 0 20 0 0 0 0 0 0 0 0 0 0 0 0 0 
		4 0 0 0 0 0 0 0 0 0 0 39 0 0 20 0 0 0 31 0 0 0 0 0 0 37 0 0 0 0 0 0 0 0 0 26 0 0 35 0 0 0 0 0 0 0 0 0 0 0 
		5 0 0 0 0 0 0 0 0 0 0 0 0 0 0 0 0 0 32 0 0 0 0 0 0 28 24 24 0 0 30 0 0 30 0 34 0 0 0 0 0 0 0 0 0 0 0 0 0 0 
		6 0 31 25 0 0 0 0 29 0 0 0 0 0 0 0 0 0 0 0 0 0 37 0 0 0 0 0 0 0 0 0 0 0 30 0 0 0 0 0 0 27 0 0 0 0 0 0 0 0 
		7 0 0 37 0 0 0 29 0 0 0 0 0 0 0 0 0 0 0 0 0 0 0 0 0 0 0 0 0 0 0 0 39 0 0 0 0 0 0 0 0 0 0 0 0 0 0 0 38 31 
		8 0 0 0 0 0 0 0 0 0 0 0 0 0 0 0 0 0 0 0 0 0 0 0 39 0 0 0 0 0 0 0 0 0 0 0 0 0 0 0 25 0 0 0 0 0 31 0 0 0 
		9 0 0 0 0 0 0 0 0 0 0 0 0 0 0 0 35 33 0 0 0 0 0 0 21 0 34 0 0 0 22 0 0 0 0 0 0 0 0 0 0 0 0 37 0 0 40 0 0 0 
		10 0 0 0 0 39 0 0 0 0 0 0 34 0 0 0 0 34 0 0 0 0 0 0 0 22 0 0 0 0 0 0 0 22 0 33 0 0 0 0 0 0 0 0 0 0 0 0 0 0 
		11 0 0 0 0 0 0 0 0 0 0 34 0 0 0 35 0 0 0 0 31 0 0 0 0 0 0 0 37 0 0 0 24 0 37 27 0 0 0 0 0 0 0 0 0 0 0 0 0 21 
		12 0 0 0 0 0 0 0 0 0 0 0 0 0 0 0 0 0 0 0 0 0 0 0 0 0 0 0 0 0 0 0 0 0 0 0 0 0 0 0 0 0 0 21 0 0 0 0 0 0 
		13 0 26 0 20 20 0 0 0 0 0 0 0 0 0 0 0 0 0 0 0 0 0 0 0 0 0 0 0 0 0 0 0 0 0 0 0 0 0 39 0 39 0 0 0 0 0 0 0 0 
		14 38 0 0 0 0 0 0 0 0 0 0 35 0 0 0 0 0 0 0 0 0 0 0 0 0 0 0 0 0 0 21 0 34 0 0 0 0 0 0 0 0 0 0 21 0 0 0 0 0 
		15 0 0 0 0 0 0 0 0 0 35 0 0 0 0 0 0 0 0 0 0 0 0 0 0 0 0 0 0 0 0 0 0 0 0 0 0 0 0 0 0 0 0 0 0 0 0 0 0 0 
		16 0 0 0 20 0 0 0 0 0 33 34 0 0 0 0 0 0 0 0 0 0 0 0 0 0 0 0 0 26 0 0 0 0 0 0 0 0 0 0 0 0 0 0 0 0 36 29 0 0 
		17 0 0 0 0 31 32 0 0 0 0 0 0 0 0 0 0 0 0 0 0 0 0 0 0 32 0 0 0 0 0 0 0 0 0 0 20 0 31 0 0 0 0 0 0 0 0 0 0 0 
		18 0 0 0 0 0 0 0 0 0 0 0 0 0 0 0 0 0 0 0 0 0 0 0 0 0 0 0 0 0 0 0 0 0 0 0 0 0 0 0 0 35 0 0 0 0 0 0 0 0 
		19 0 0 0 0 0 0 0 0 0 0 0 31 0 0 0 0 0 0 0 0 0 26 0 0 0 0 0 0 0 0 0 0 0 0 0 21 25 0 25 0 0 0 0 0 0 0 0 0 0 
		20 0 0 0 0 0 0 0 0 0 0 0 0 0 0 0 0 0 0 0 0 0 0 0 0 20 0 0 0 0 0 40 0 0 0 0 0 0 0 0 0 0 0 0 0 39 0 27 0 0 
		21 0 27 40 0 0 0 37 0 0 0 0 0 0 0 0 0 0 0 0 26 0 0 35 0 0 0 0 0 0 0 0 0 0 0 0 0 0 0 0 0 0 0 0 0 0 0 0 0 0 
		22 26 0 0 0 0 0 0 0 0 0 0 0 0 0 0 0 0 0 0 0 0 35 0 20 0 0 0 0 0 0 0 0 0 0 0 0 0 0 0 0 0 0 0 0 0 0 0 0 0 
		23 0 0 31 0 0 0 0 0 39 21 0 0 0 0 0 0 0 0 0 0 0 0 20 0 0 38 0 0 0 0 0 0 0 0 0 0 0 0 0 0 0 0 0 0 0 0 0 0 0 
		24 0 27 0 0 37 28 0 0 0 0 22 0 0 0 0 0 0 32 0 0 20 0 0 0 0 0 0 0 27 0 0 29 0 0 0 0 0 0 0 0 0 28 0 0 0 0 0 0 0 
		25 0 0 0 0 0 24 0 0 0 34 0 0 0 0 0 0 0 0 0 0 0 0 0 38 0 0 37 0 0 0 0 0 0 0 0 29 0 0 0 0 24 0 20 30 0 0 20 0 0 
		26 0 0 0 0 0 24 0 0 0 0 0 0 0 0 0 0 0 0 0 0 0 0 0 0 0 37 0 22 32 0 23 0 26 0 0 0 0 36 0 0 29 0 0 0 0 0 0 0 0 
		27 0 0 0 0 0 0 0 0 0 0 0 37 0 0 0 0 0 0 0 0 0 0 0 0 0 0 22 0 0 0 0 0 0 30 0 0 0 0 39 20 0 0 0 0 0 0 0 0 0 
		28 23 0 0 0 0 0 0 0 0 0 0 0 0 0 0 0 26 0 0 0 0 0 0 0 27 0 32 0 0 0 0 0 0 0 0 0 0 0 34 0 0 36 0 0 0 0 0 0 0 
		29 0 0 0 0 0 30 0 0 0 22 0 0 0 0 0 0 0 0 0 0 0 0 0 0 0 0 0 0 0 0 0 0 0 0 0 0 0 0 0 0 0 0 0 0 0 0 0 0 0 
		30 0 0 0 0 0 0 0 0 0 0 0 0 0 0 21 0 0 0 0 0 40 0 0 0 0 0 23 0 0 0 0 0 0 0 0 32 0 0 0 0 0 0 0 30 0 0 0 33 0 
		31 0 0 0 0 0 0 0 39 0 0 0 24 0 0 0 0 0 0 0 0 0 0 0 0 29 0 0 0 0 0 0 0 0 0 0 0 0 0 0 0 0 0 0 0 0 0 0 0 0 
		32 0 0 23 0 0 30 0 0 0 0 22 0 0 0 34 0 0 0 0 0 0 0 0 0 0 0 26 0 0 0 0 0 0 0 0 0 0 0 0 0 26 0 0 0 0 0 0 0 0 
		33 0 0 0 32 0 0 30 0 0 0 0 37 0 0 0 0 0 0 0 0 0 0 0 0 0 0 0 30 0 0 0 0 0 0 0 0 0 0 0 0 0 0 0 0 0 0 0 0 0 
		34 0 32 0 0 26 34 0 0 0 0 33 27 0 0 0 0 0 0 0 0 0 0 0 0 0 0 0 0 0 0 0 0 0 0 0 35 0 0 40 0 0 0 0 0 0 0 27 0 0 
		35 0 0 0 20 0 0 0 0 0 0 0 0 0 0 0 0 0 20 0 21 0 0 0 0 0 29 0 0 0 0 32 0 0 0 35 0 30 0 0 0 0 0 0 0 0 0 27 0 0 
		36 0 0 31 0 0 0 0 0 0 0 0 0 0 0 0 0 0 0 0 25 0 0 0 0 0 0 0 0 0 0 0 0 0 0 0 30 0 0 0 0 0 0 0 0 0 0 0 0 0 
		37 0 0 0 0 35 0 0 0 0 0 0 0 0 0 0 0 0 31 0 0 0 0 0 0 0 0 36 0 0 0 0 0 0 0 0 0 0 0 0 26 0 0 0 33 0 0 0 0 0 
		38 0 0 0 0 0 0 0 0 0 0 0 0 0 39 0 0 0 0 0 25 0 0 0 0 0 0 0 39 34 0 0 0 0 0 40 0 0 0 0 0 0 0 0 0 0 0 0 0 40 
		39 0 0 0 0 0 0 0 0 25 0 0 0 0 0 0 0 0 0 0 0 0 0 0 0 0 0 0 20 0 0 0 0 0 0 0 0 0 26 0 0 0 0 0 0 0 0 0 0 0 
		40 0 0 0 0 0 0 27 0 0 0 0 0 0 39 0 0 0 0 35 0 0 0 0 0 0 24 29 0 0 0 0 0 26 0 0 0 0 0 0 0 0 28 0 0 0 0 0 20 0 
		41 0 0 0 0 0 0 0 0 0 0 0 0 0 0 0 0 0 0 0 0 0 0 0 0 28 0 0 0 36 0 0 0 0 0 0 0 0 0 0 0 28 0 0 0 0 0 0 0 0 
		42 0 0 0 0 0 0 0 0 0 37 0 0 21 0 0 0 0 0 0 0 0 0 0 0 0 20 0 0 0 0 0 0 0 0 0 0 0 0 0 0 0 0 0 0 0 0 0 0 0 
		43 0 0 0 0 0 0 0 0 0 0 0 0 0 0 21 0 0 0 0 0 0 0 0 0 0 30 0 0 0 0 30 0 0 0 0 0 0 33 0 0 0 0 0 0 0 0 0 24 0 
		44 0 23 29 0 0 0 0 0 0 0 0 0 0 0 0 0 0 0 0 0 39 0 0 0 0 0 0 0 0 0 0 0 0 0 0 0 0 0 0 0 0 0 0 0 0 0 0 29 0 
		45 0 0 0 0 0 0 0 0 31 40 0 0 0 0 0 0 36 0 0 0 0 0 0 0 0 0 0 0 0 0 0 0 0 0 0 0 0 0 0 0 0 0 0 0 0 0 26 0 0 
		46 0 0 0 0 0 0 0 0 0 0 0 0 0 0 0 0 29 0 0 0 27 0 0 0 0 20 0 0 0 0 0 0 0 0 27 27 0 0 0 0 0 0 0 0 0 26 0 38 0 
		47 0 0 25 0 0 0 0 38 0 0 0 0 0 0 0 0 0 0 0 0 0 0 0 0 0 0 0 0 0 0 33 0 0 0 0 0 0 0 0 0 20 0 0 24 29 0 38 0 0 
		48 35 0 0 0 0 0 0 31 0 0 0 21 0 0 0 0 0 0 0 0 0 0 0 0 0 0 0 0 0 0 0 0 0 0 0 0 0 0 40 0 0 0 0 0 0 0 0 0 0 
;
